% File represents an instance of a Composite Structure problem to be solved by a CP framework
% Created on 2025-03-26 10:42:15.563
T = 50;
n = 36;
m = 60;
edges = [(1, 2),
(7, 8),
(13, 14),
(20, 19),
(25, 26),
(32, 31),
(2, 3),
(8, 9),
(14, 15),
(20, 21),
(27, 26),
(32, 33),
(3, 4),
(9, 10),
(16, 15),
(21, 22),
(27, 28),
(33, 34),
(4, 5),
(10, 11),
(17, 16),
(23, 22),
(28, 29),
(34, 35),
(5, 6),
(12, 11),
(18, 17),
(23, 24),
(29, 30),
(35, 36),
(1, 7),
(7, 13),
(13, 19),
(25, 19),
(25, 31),
(2, 8),
(8, 14),
(20, 14),
(20, 26),
(32, 26),
(3, 9),
(9, 15),
(21, 15),
(27, 21),
(27, 33),
(4, 10),
(16, 10),
(16, 22),
(28, 22),
(28, 34),
(5, 11),
(17, 11),
(23, 17),
(23, 29),
(29, 35),
(12, 6),
(18, 12),
(18, 24),
(24, 30),
(30, 36)];
counts = [|6, 16, 6, 22,
|4, 14, 4, 22,
|4, 12, 4, 18,
|4, 12, 4, 14,
|4, 10, 4, 14,
|2, 10, 2, 12,
|6, 16, 6, 16,
|4, 14, 4, 16,
|4, 8, 4, 16,
|4, 8, 4, 12,
|4, 8, 4, 10,
|4, 10, 4, 12,
|6, 14, 6, 12,
|4, 14, 4, 12,
|4, 8, 4, 12,
|4, 8, 4, 14,
|4, 10, 4, 14,
|4, 12, 4, 14,
|4, 14, 4, 10,
|4, 16, 4, 12,
|4, 12, 4, 12,
|4, 8, 4, 12,
|4, 10, 4, 16,
|4, 10, 4, 10,
|6, 16, 6, 10,
|4, 16, 4, 10,
|4, 16, 4, 12,
|4, 12, 4, 12,
|4, 10, 4, 12,
|4, 8, 4, 8,
|6, 16, 6, 8,
|6, 16, 6, 12,
|4, 14, 4, 12,
|4, 12, 4, 8,
|4, 8, 4, 8,
|4, 4, 4, 8|];
